NAME : 40_5_01.60610.tour
COMMENT : Cost = 0_60610
COMMENT : Found by LKH [Keld Helsgaun] Thu Sep 14 11:07:48 2017
TYPE : TOUR
DIMENSION : 45
TOUR_SECTION
1
7
31
8
42
5
25
12
11
23
34
3
19
20
21
43
4
6
44
26
2
27
40
29
33
9
13
10
36
24
35
22
30
45
32
15
41
16
14
38
28
37
17
39
18
-1
EOF
